70
1 0 25
2 0 37
2 1 76
3 0 35
3 1 12
3 2 74
4 0 53
4 1 4
4 2 71
4 3 37
5 0 7
5 1 25
5 2 62
5 3 77
5 4 9
6 0 20
6 1 78
6 2 73
6 3 14
6 4 9
6 5 90
7 0 20
7 1 84
7 2 85
7 3 97
7 4 66
7 5 89
7 6 11
8 0 69
8 1 70
8 2 42
8 3 52
8 4 78
8 5 51
8 6 2
8 7 93
9 0 35
9 1 32
9 2 61
9 3 100
9 4 89
9 5 19
9 6 100
9 7 19
9 8 60
10 0 60
10 1 70
10 2 44
10 3 5
10 4 69
10 5 50
10 6 77
10 7 34
10 8 15
10 9 63
11 0 55
11 1 42
11 2 19
11 3 80
11 4 46
11 5 5
11 6 100
11 7 25
11 8 20
11 9 69
11 10 47
12 0 62
12 1 33
12 2 27
12 3 50
12 4 37
12 5 15
12 6 55
12 7 79
12 8 95
12 9 29
12 10 66
12 11 1
13 0 99
13 1 27
13 2 93
13 3 1
13 4 29
13 5 58
13 6 14
13 7 1
13 8 21
13 9 73
13 10 70
13 11 35
13 12 89
14 0 39
14 1 63
14 2 8
14 3 38
14 4 74
14 5 7
14 6 30
14 7 44
14 8 34
14 9 85
14 10 36
14 11 93
14 12 38
14 13 39
15 0 10
15 1 67
15 2 15
15 3 73
15 4 79
15 5 44
15 6 82
15 7 77
15 8 48
15 9 47
15 10 15
15 11 83
15 12 86
15 13 41
15 14 62
16 0 5
16 1 94
16 2 93
16 3 3
16 4 47
16 5 11
16 6 19
16 7 64
16 8 57
16 9 25
16 10 87
16 11 38
16 12 80
16 13 19
16 14 68
16 15 77
17 0 27
17 1 55
17 2 27
17 3 42
17 4 58
17 5 71
17 6 19
17 7 38
17 8 66
17 9 60
17 10 21
17 11 64
17 12 91
17 13 47
17 14 7
17 15 64
17 16 8
18 0 72
18 1 73
18 2 55
18 3 68
18 4 67
18 5 44
18 6 50
18 7 85
18 8 78
18 9 22
18 10 35
18 11 100
18 12 47
18 13 75
18 14 51
18 15 66
18 16 95
18 17 63
19 0 76
19 1 25
19 2 39
19 3 46
19 4 35
19 5 88
19 6 49
19 7 30
19 8 66
19 9 23
19 10 21
19 11 45
19 12 25
19 13 18
19 14 27
19 15 59
19 16 3
19 17 84
19 18 70
20 0 65
20 1 97
20 2 93
20 3 38
20 4 11
20 5 56
20 6 88
20 7 71
20 8 40
20 9 81
20 10 99
20 11 39
20 12 81
20 13 67
20 14 47
20 15 27
20 16 93
20 17 12
20 18 33
20 19 77
21 0 55
21 1 21
21 2 43
21 3 99
21 4 64
21 5 87
21 6 96
21 7 95
21 8 66
21 9 39
21 10 39
21 11 33
21 12 54
21 13 65
21 14 65
21 15 55
21 16 90
21 17 62
21 18 87
21 19 39
21 20 41
22 0 81
22 1 12
22 2 19
22 3 43
22 4 48
22 5 100
22 6 46
22 7 18
22 8 100
22 9 90
22 10 49
22 11 22
22 12 51
22 13 30
22 14 8
22 15 96
22 16 83
22 17 60
22 18 74
22 19 40
22 20 32
22 21 6
23 0 86
23 1 38
23 2 2
23 3 6
23 4 64
23 5 7
23 6 39
23 7 75
23 8 85
23 9 49
23 10 47
23 11 70
23 12 75
23 13 12
23 14 17
23 15 12
23 16 67
23 17 6
23 18 6
23 19 86
23 20 6
23 21 39
23 22 98
24 0 24
24 1 12
24 2 39
24 3 23
24 4 32
24 5 20
24 6 95
24 7 13
24 8 25
24 9 65
24 10 45
24 11 27
24 12 79
24 13 80
24 14 67
24 15 82
24 16 12
24 17 22
24 18 71
24 19 52
24 20 59
24 21 50
24 22 88
24 23 37
25 0 98
25 1 9
25 2 13
25 3 14
25 4 33
25 5 10
25 6 39
25 7 12
25 8 62
25 9 95
25 10 91
25 11 86
25 12 74
25 13 34
25 14 55
25 15 68
25 16 47
25 17 98
25 18 43
25 19 31
25 20 50
25 21 87
25 22 67
25 23 91
25 24 73
26 0 31
26 1 86
26 2 29
26 3 27
26 4 78
26 5 54
26 6 17
26 7 2
26 8 35
26 9 3
26 10 65
26 11 62
26 12 39
26 13 21
26 14 39
26 15 21
26 16 56
26 17 100
26 18 10
26 19 30
26 20 57
26 21 93
26 22 31
26 23 71
26 24 1
26 25 80
27 0 58
27 1 30
27 2 28
27 3 41
27 4 58
27 5 96
27 6 49
27 7 91
27 8 69
27 9 25
27 10 76
27 11 10
27 12 11
27 13 39
27 14 38
27 15 93
27 16 58
27 17 70
27 18 75
27 19 87
27 20 16
27 21 57
27 22 97
27 23 97
27 24 84
27 25 67
27 26 54
28 0 74
28 1 71
28 2 86
28 3 68
28 4 25
28 5 3
28 6 8
28 7 100
28 8 98
28 9 61
28 10 18
28 11 67
28 12 38
28 13 8
28 14 45
28 15 33
28 16 20
28 17 3
28 18 34
28 19 32
28 20 89
28 21 30
28 22 53
28 23 98
28 24 89
28 25 59
28 26 50
28 27 15
29 0 40
29 1 39
29 2 15
29 3 12
29 4 95
29 5 85
29 6 14
29 7 58
29 8 8
29 9 99
29 10 99
29 11 36
29 12 64
29 13 53
29 14 18
29 15 11
29 16 77
29 17 17
29 18 65
29 19 5
29 20 48
29 21 100
29 22 63
29 23 46
29 24 30
29 25 55
29 26 53
29 27 73
29 28 63
30 0 55
30 1 37
30 2 93
30 3 53
30 4 36
30 5 8
30 6 26
30 7 24
30 8 89
30 9 46
30 10 88
30 11 61
30 12 6
30 13 83
30 14 5
30 15 22
30 16 52
30 17 56
30 18 42
30 19 93
30 20 95
30 21 87
30 22 98
30 23 1
30 24 23
30 25 95
30 26 9
30 27 27
30 28 31
30 29 98
31 0 41
31 1 73
31 2 49
31 3 61
31 4 89
31 5 70
31 6 59
31 7 24
31 8 89
31 9 41
31 10 5
31 11 86
31 12 26
31 13 60
31 14 8
31 15 44
31 16 96
31 17 54
31 18 30
31 19 13
31 20 39
31 21 51
31 22 59
31 23 76
31 24 67
31 25 70
31 26 95
31 27 29
31 28 46
31 29 6
31 30 72
32 0 37
32 1 14
32 2 54
32 3 42
32 4 4
32 5 27
32 6 71
32 7 5
32 8 28
32 9 87
32 10 81
32 11 57
32 12 92
32 13 77
32 14 63
32 15 95
32 16 9
32 17 12
32 18 79
32 19 10
32 20 37
32 21 94
32 22 33
32 23 33
32 24 4
32 25 99
32 26 68
32 27 35
32 28 40
32 29 67
32 30 43
32 31 95
33 0 88
33 1 58
33 2 46
33 3 74
33 4 34
33 5 90
33 6 27
33 7 73
33 8 9
33 9 85
33 10 73
33 11 56
33 12 13
33 13 75
33 14 54
33 15 62
33 16 95
33 17 60
33 18 96
33 19 50
33 20 74
33 21 2
33 22 81
33 23 41
33 24 89
33 25 12
33 26 73
33 27 48
33 28 15
33 29 56
33 30 12
33 31 16
33 32 74
34 0 92
34 1 40
34 2 18
34 3 42
34 4 8
34 5 36
34 6 58
34 7 23
34 8 21
34 9 79
34 10 95
34 11 35
34 12 78
34 13 79
34 14 92
34 15 42
34 16 40
34 17 24
34 18 36
34 19 19
34 20 51
34 21 38
34 22 95
34 23 35
34 24 35
34 25 69
34 26 11
34 27 95
34 28 63
34 29 21
34 30 38
34 31 64
34 32 72
34 33 19
35 0 72
35 1 84
35 2 47
35 3 68
35 4 38
35 5 33
35 6 94
35 7 38
35 8 38
35 9 17
35 10 52
35 11 92
35 12 54
35 13 59
35 14 38
35 15 41
35 16 72
35 17 49
35 18 11
35 19 86
35 20 87
35 21 74
35 22 11
35 23 83
35 24 72
35 25 18
35 26 95
35 27 51
35 28 41
35 29 18
35 30 86
35 31 92
35 32 45
35 33 18
35 34 7
36 0 4
36 1 69
36 2 51
36 3 57
36 4 3
36 5 11
36 6 32
36 7 66
36 8 92
36 9 87
36 10 63
36 11 14
36 12 28
36 13 74
36 14 67
36 15 29
36 16 87
36 17 82
36 18 7
36 19 75
36 20 31
36 21 32
36 22 55
36 23 4
36 24 4
36 25 72
36 26 20
36 27 40
36 28 45
36 29 55
36 30 53
36 31 3
36 32 75
36 33 69
36 34 75
36 35 6
37 0 85
37 1 91
37 2 11
37 3 80
37 4 62
37 5 96
37 6 19
37 7 97
37 8 5
37 9 56
37 10 43
37 11 15
37 12 28
37 13 3
37 14 41
37 15 55
37 16 53
37 17 43
37 18 54
37 19 83
37 20 34
37 21 38
37 22 25
37 23 55
37 24 72
37 25 10
37 26 79
37 27 63
37 28 5
37 29 15
37 30 33
37 31 71
37 32 92
37 33 98
37 34 81
37 35 38
37 36 17
38 0 38
38 1 82
38 2 70
38 3 78
38 4 22
38 5 53
38 6 35
38 7 56
38 8 28
38 9 35
38 10 58
38 11 60
38 12 92
38 13 82
38 14 49
38 15 96
38 16 98
38 17 96
38 18 52
38 19 20
38 20 9
38 21 18
38 22 14
38 23 50
38 24 32
38 25 24
38 26 7
38 27 69
38 28 87
38 29 6
38 30 58
38 31 36
38 32 17
38 33 34
38 34 65
38 35 72
38 36 59
38 37 20
39 0 2
39 1 21
39 2 74
39 3 36
39 4 59
39 5 67
39 6 97
39 7 60
39 8 42
39 9 82
39 10 46
39 11 49
39 12 45
39 13 31
39 14 23
39 15 56
39 16 77
39 17 40
39 18 80
39 19 54
39 20 84
39 21 40
39 22 37
39 23 27
39 24 22
39 25 7
39 26 70
39 27 31
39 28 50
39 29 78
39 30 24
39 31 55
39 32 65
39 33 16
39 34 95
39 35 22
39 36 95
39 37 41
39 38 95
40 0 10
40 1 9
40 2 62
40 3 12
40 4 86
40 5 31
40 6 79
40 7 94
40 8 87
40 9 52
40 10 18
40 11 51
40 12 83
40 13 78
40 14 47
40 15 39
40 16 4
40 17 65
40 18 69
40 19 63
40 20 37
40 21 25
40 22 91
40 23 38
40 24 97
40 25 2
40 26 21
40 27 66
40 28 42
40 29 54
40 30 36
40 31 33
40 32 90
40 33 98
40 34 27
40 35 44
40 36 45
40 37 82
40 38 13
40 39 20
41 0 58
41 1 15
41 2 83
41 3 54
41 4 60
41 5 62
41 6 92
41 7 93
41 8 56
41 9 71
41 10 49
41 11 77
41 12 69
41 13 7
41 14 49
41 15 74
41 16 57
41 17 6
41 18 39
41 19 76
41 20 59
41 21 67
41 22 36
41 23 58
41 24 40
41 25 47
41 26 25
41 27 3
41 28 34
41 29 34
41 30 98
41 31 46
41 32 1
41 33 4
41 34 27
41 35 7
41 36 68
41 37 96
41 38 79
41 39 93
41 40 3
42 0 55
42 1 5
42 2 1
42 3 36
42 4 22
42 5 76
42 6 49
42 7 51
42 8 81
42 9 37
42 10 23
42 11 84
42 12 96
42 13 98
42 14 10
42 15 19
42 16 77
42 17 9
42 18 53
42 19 71
42 20 77
42 21 54
42 22 57
42 23 80
42 24 9
42 25 80
42 26 29
42 27 61
42 28 18
42 29 49
42 30 20
42 31 2
42 32 64
42 33 65
42 34 20
42 35 81
42 36 99
42 37 25
42 38 14
42 39 50
42 40 32
42 41 90
43 0 96
43 1 24
43 2 27
43 3 88
43 4 9
43 5 45
43 6 79
43 7 69
43 8 51
43 9 32
43 10 50
43 11 97
43 12 70
43 13 29
43 14 69
43 15 47
43 16 31
43 17 8
43 18 34
43 19 29
43 20 33
43 21 94
43 22 60
43 23 70
43 24 11
43 25 18
43 26 56
43 27 10
43 28 46
43 29 14
43 30 49
43 31 21
43 32 72
43 33 20
43 34 59
43 35 24
43 36 48
43 37 40
43 38 9
43 39 79
43 40 38
43 41 83
43 42 25
44 0 79
44 1 19
44 2 95
44 3 55
44 4 50
44 5 5
44 6 31
44 7 10
44 8 65
44 9 58
44 10 40
44 11 11
44 12 11
44 13 27
44 14 76
44 15 95
44 16 58
44 17 36
44 18 35
44 19 7
44 20 36
44 21 6
44 22 86
44 23 97
44 24 17
44 25 86
44 26 65
44 27 73
44 28 36
44 29 30
44 30 26
44 31 3
44 32 33
44 33 51
44 34 76
44 35 64
44 36 69
44 37 14
44 38 46
44 39 61
44 40 67
44 41 79
44 42 64
44 43 87
45 0 74
45 1 93
45 2 41
45 3 87
45 4 40
45 5 83
45 6 76
45 7 51
45 8 74
45 9 19
45 10 50
45 11 39
45 12 10
45 13 31
45 14 65
45 15 23
45 16 99
45 17 7
45 18 37
45 19 3
45 20 6
45 21 12
45 22 61
45 23 12
45 24 84
45 25 85
45 26 5
45 27 43
45 28 48
45 29 31
45 30 92
45 31 45
45 32 78
45 33 94
45 34 90
45 35 71
45 36 17
45 37 81
45 38 14
45 39 87
45 40 39
45 41 91
45 42 97
45 43 71
45 44 21
46 0 39
46 1 9
46 2 47
46 3 31
46 4 6
46 5 10
46 6 50
46 7 7
46 8 42
46 9 76
46 10 19
46 11 10
46 12 99
46 13 35
46 14 42
46 15 64
46 16 87
46 17 93
46 18 23
46 19 16
46 20 65
46 21 41
46 22 34
46 23 79
46 24 12
46 25 81
46 26 75
46 27 45
46 28 50
46 29 9
46 30 53
46 31 82
46 32 1
46 33 27
46 34 54
46 35 39
46 36 10
46 37 92
46 38 71
46 39 42
46 40 65
46 41 16
46 42 5
46 43 45
46 44 80
46 45 82
47 0 66
47 1 57
47 2 52
47 3 21
47 4 28
47 5 94
47 6 85
47 7 84
47 8 11
47 9 85
47 10 38
47 11 1
47 12 16
47 13 57
47 14 64
47 15 3
47 16 14
47 17 79
47 18 32
47 19 57
47 20 73
47 21 16
47 22 39
47 23 29
47 24 80
47 25 60
47 26 75
47 27 96
47 28 77
47 29 5
47 30 86
47 31 46
47 32 36
47 33 95
47 34 51
47 35 55
47 36 29
47 37 75
47 38 63
47 39 29
47 40 72
47 41 6
47 42 85
47 43 34
47 44 46
47 45 30
47 46 31
48 0 73
48 1 39
48 2 94
48 3 64
48 4 77
48 5 36
48 6 80
48 7 40
48 8 4
48 9 73
48 10 88
48 11 32
48 12 80
48 13 23
48 14 68
48 15 3
48 16 25
48 17 76
48 18 8
48 19 20
48 20 38
48 21 48
48 22 18
48 23 32
48 24 43
48 25 9
48 26 63
48 27 44
48 28 14
48 29 26
48 30 48
48 31 70
48 32 33
48 33 61
48 34 45
48 35 37
48 36 56
48 37 75
48 38 14
48 39 80
48 40 79
48 41 16
48 42 75
48 43 52
48 44 34
48 45 98
48 46 14
48 47 30
49 0 57
49 1 1
49 2 38
49 3 99
49 4 20
49 5 47
49 6 18
49 7 38
49 8 92
49 9 35
49 10 69
49 11 52
49 12 93
49 13 31
49 14 71
49 15 9
49 16 54
49 17 53
49 18 29
49 19 87
49 20 86
49 21 7
49 22 11
49 23 32
49 24 34
49 25 37
49 26 33
49 27 93
49 28 55
49 29 20
49 30 63
49 31 75
49 32 59
49 33 13
49 34 70
49 35 20
49 36 96
49 37 22
49 38 47
49 39 34
49 40 80
49 41 66
49 42 67
49 43 88
49 44 78
49 45 41
49 46 67
49 47 82
49 48 6
50 0 18
50 1 56
50 2 39
50 3 25
50 4 28
50 5 9
50 6 72
50 7 8
50 8 15
50 9 75
50 10 52
50 11 20
50 12 55
50 13 18
50 14 41
50 15 65
50 16 87
50 17 77
50 18 98
50 19 50
50 20 93
50 21 95
50 22 63
50 23 92
50 24 18
50 25 78
50 26 62
50 27 74
50 28 34
50 29 59
50 30 11
50 31 1
50 32 77
50 33 98
50 34 97
50 35 42
50 36 5
50 37 34
50 38 64
50 39 40
50 40 73
50 41 59
50 42 49
50 43 23
50 44 14
50 45 8
50 46 20
50 47 71
50 48 65
50 49 63
51 0 23
51 1 92
51 2 92
51 3 12
51 4 57
51 5 33
51 6 92
51 7 30
51 8 6
51 9 25
51 10 74
51 11 64
51 12 5
51 13 30
51 14 62
51 15 24
51 16 34
51 17 51
51 18 61
51 19 42
51 20 54
51 21 10
51 22 66
51 23 25
51 24 25
51 25 16
51 26 37
51 27 23
51 28 82
51 29 74
51 30 43
51 31 98
51 32 50
51 33 2
51 34 60
51 35 44
51 36 24
51 37 67
51 38 70
51 39 11
51 40 64
51 41 51
51 42 1
51 43 32
51 44 43
51 45 4
51 46 9
51 47 43
51 48 83
51 49 55
51 50 72
52 0 58
52 1 57
52 2 80
52 3 75
52 4 38
52 5 27
52 6 51
52 7 88
52 8 58
52 9 68
52 10 12
52 11 66
52 12 63
52 13 87
52 14 68
52 15 29
52 16 78
52 17 38
52 18 62
52 19 3
52 20 100
52 21 83
52 22 93
52 23 25
52 24 88
52 25 73
52 26 98
52 27 41
52 28 42
52 29 30
52 30 89
52 31 52
52 32 16
52 33 54
52 34 34
52 35 93
52 36 30
52 37 99
52 38 17
52 39 45
52 40 54
52 41 76
52 42 6
52 43 13
52 44 90
52 45 92
52 46 28
52 47 19
52 48 83
52 49 29
52 50 29
52 51 1
53 0 14
53 1 4
53 2 53
53 3 16
53 4 75
53 5 93
53 6 89
53 7 69
53 8 31
53 9 98
53 10 53
53 11 50
53 12 3
53 13 75
53 14 17
53 15 20
53 16 35
53 17 75
53 18 85
53 19 90
53 20 37
53 21 55
53 22 97
53 23 94
53 24 100
53 25 57
53 26 10
53 27 28
53 28 47
53 29 77
53 30 58
53 31 26
53 32 42
53 33 52
53 34 30
53 35 89
53 36 87
53 37 50
53 38 95
53 39 74
53 40 80
53 41 45
53 42 64
53 43 34
53 44 94
53 45 95
53 46 77
53 47 52
53 48 37
53 49 70
53 50 46
53 51 98
53 52 59
54 0 96
54 1 93
54 2 35
54 3 47
54 4 1
54 5 73
54 6 18
54 7 19
54 8 100
54 9 66
54 10 80
54 11 95
54 12 28
54 13 66
54 14 2
54 15 20
54 16 27
54 17 19
54 18 1
54 19 60
54 20 52
54 21 84
54 22 86
54 23 99
54 24 23
54 25 9
54 26 69
54 27 5
54 28 68
54 29 53
54 30 31
54 31 42
54 32 20
54 33 3
54 34 74
54 35 56
54 36 63
54 37 48
54 38 13
54 39 53
54 40 45
54 41 33
54 42 97
54 43 37
54 44 97
54 45 85
54 46 44
54 47 4
54 48 33
54 49 90
54 50 49
54 51 87
54 52 12
54 53 71
55 0 90
55 1 99
55 2 93
55 3 88
55 4 32
55 5 35
55 6 14
55 7 61
55 8 27
55 9 12
55 10 73
55 11 81
55 12 46
55 13 66
55 14 88
55 15 78
55 16 83
55 17 43
55 18 79
55 19 44
55 20 32
55 21 32
55 22 81
55 23 34
55 24 24
55 25 48
55 26 93
55 27 98
55 28 65
55 29 56
55 30 20
55 31 14
55 32 26
55 33 87
55 34 51
55 35 18
55 36 65
55 37 92
55 38 4
55 39 67
55 40 89
55 41 44
55 42 10
55 43 68
55 44 77
55 45 68
55 46 22
55 47 58
55 48 37
55 49 67
55 50 79
55 51 28
55 52 56
55 53 81
55 54 50
56 0 20
56 1 63
56 2 79
56 3 45
56 4 42
56 5 28
56 6 91
56 7 70
56 8 74
56 9 57
56 10 11
56 11 54
56 12 66
56 13 56
56 14 52
56 15 78
56 16 52
56 17 78
56 18 4
56 19 93
56 20 30
56 21 75
56 22 47
56 23 1
56 24 77
56 25 15
56 26 28
56 27 24
56 28 1
56 29 42
56 30 66
56 31 8
56 32 56
56 33 84
56 34 85
56 35 19
56 36 66
56 37 45
56 38 74
56 39 37
56 40 28
56 41 20
56 42 15
56 43 50
56 44 5
56 45 36
56 46 36
56 47 5
56 48 19
56 49 3
56 50 85
56 51 75
56 52 97
56 53 19
56 54 25
56 55 39
57 0 57
57 1 76
57 2 94
57 3 85
57 4 6
57 5 56
57 6 88
57 7 91
57 8 99
57 9 5
57 10 52
57 11 41
57 12 99
57 13 40
57 14 98
57 15 74
57 16 6
57 17 21
57 18 74
57 19 79
57 20 58
57 21 80
57 22 58
57 23 81
57 24 37
57 25 12
57 26 51
57 27 97
57 28 10
57 29 50
57 30 95
57 31 23
57 32 97
57 33 93
57 34 36
57 35 13
57 36 52
57 37 51
57 38 7
57 39 51
57 40 89
57 41 26
57 42 7
57 43 13
57 44 100
57 45 45
57 46 97
57 47 100
57 48 32
57 49 20
57 50 43
57 51 54
57 52 33
57 53 92
57 54 63
57 55 16
57 56 81
58 0 80
58 1 79
58 2 72
58 3 56
58 4 62
58 5 70
58 6 2
58 7 9
58 8 37
58 9 74
58 10 35
58 11 57
58 12 55
58 13 86
58 14 50
58 15 94
58 16 21
58 17 58
58 18 8
58 19 95
58 20 88
58 21 94
58 22 89
58 23 68
58 24 24
58 25 89
58 26 61
58 27 66
58 28 95
58 29 65
58 30 21
58 31 71
58 32 4
58 33 93
58 34 80
58 35 8
58 36 93
58 37 18
58 38 76
58 39 62
58 40 73
58 41 12
58 42 40
58 43 88
58 44 62
58 45 29
58 46 51
58 47 47
58 48 30
58 49 35
58 50 62
58 51 18
58 52 89
58 53 37
58 54 65
58 55 51
58 56 79
58 57 40
59 0 40
59 1 63
59 2 26
59 3 92
59 4 6
59 5 11
59 6 90
59 7 13
59 8 60
59 9 72
59 10 15
59 11 2
59 12 89
59 13 21
59 14 50
59 15 82
59 16 70
59 17 98
59 18 22
59 19 21
59 20 6
59 21 86
59 22 49
59 23 30
59 24 61
59 25 53
59 26 45
59 27 43
59 28 90
59 29 33
59 30 57
59 31 18
59 32 85
59 33 39
59 34 23
59 35 25
59 36 65
59 37 36
59 38 45
59 39 89
59 40 95
59 41 21
59 42 23
59 43 26
59 44 18
59 45 89
59 46 89
59 47 85
59 48 16
59 49 74
59 50 33
59 51 73
59 52 50
59 53 99
59 54 19
59 55 39
59 56 34
59 57 74
59 58 23
60 0 34
60 1 54
60 2 27
60 3 52
60 4 86
60 5 28
60 6 59
60 7 16
60 8 36
60 9 69
60 10 45
60 11 67
60 12 47
60 13 7
60 14 39
60 15 30
60 16 70
60 17 63
60 18 45
60 19 76
60 20 28
60 21 100
60 22 70
60 23 32
60 24 55
60 25 87
60 26 60
60 27 19
60 28 99
60 29 44
60 30 84
60 31 52
60 32 85
60 33 66
60 34 42
60 35 64
60 36 83
60 37 31
60 38 79
60 39 19
60 40 32
60 41 57
60 42 48
60 43 38
60 44 23
60 45 47
60 46 59
60 47 54
60 48 35
60 49 40
60 50 88
60 51 51
60 52 70
60 53 72
60 54 53
60 55 83
60 56 45
60 57 86
60 58 72
60 59 54
61 0 35
61 1 78
61 2 59
61 3 13
61 4 58
61 5 46
61 6 24
61 7 97
61 8 69
61 9 79
61 10 85
61 11 21
61 12 94
61 13 23
61 14 3
61 15 12
61 16 12
61 17 84
61 18 10
61 19 8
61 20 80
61 21 72
61 22 76
61 23 100
61 24 57
61 25 98
61 26 40
61 27 70
61 28 65
61 29 68
61 30 8
61 31 49
61 32 93
61 33 35
61 34 86
61 35 26
61 36 44
61 37 14
61 38 3
61 39 42
61 40 64
61 41 69
61 42 35
61 43 74
61 44 20
61 45 13
61 46 56
61 47 4
61 48 100
61 49 97
61 50 48
61 51 95
61 52 64
61 53 74
61 54 66
61 55 46
61 56 66
61 57 54
61 58 41
61 59 86
61 60 20
62 0 99
62 1 50
62 2 37
62 3 87
62 4 22
62 5 4
62 6 46
62 7 6
62 8 83
62 9 24
62 10 73
62 11 89
62 12 99
62 13 3
62 14 86
62 15 61
62 16 9
62 17 85
62 18 86
62 19 12
62 20 67
62 21 4
62 22 94
62 23 88
62 24 52
62 25 54
62 26 36
62 27 47
62 28 10
62 29 98
62 30 27
62 31 43
62 32 76
62 33 30
62 34 48
62 35 36
62 36 39
62 37 46
62 38 51
62 39 17
62 40 47
62 41 96
62 42 38
62 43 4
62 44 62
62 45 11
62 46 10
62 47 65
62 48 24
62 49 38
62 50 75
62 51 48
62 52 63
62 53 23
62 54 54
62 55 35
62 56 86
62 57 21
62 58 38
62 59 58
62 60 28
62 61 30
63 0 77
63 1 35
63 2 25
63 3 73
63 4 6
63 5 7
63 6 75
63 7 78
63 8 30
63 9 4
63 10 70
63 11 28
63 12 43
63 13 54
63 14 35
63 15 78
63 16 37
63 17 18
63 18 92
63 19 74
63 20 20
63 21 24
63 22 39
63 23 2
63 24 80
63 25 8
63 26 26
63 27 64
63 28 24
63 29 13
63 30 47
63 31 64
63 32 5
63 33 1
63 34 85
63 35 33
63 36 13
63 37 53
63 38 93
63 39 40
63 40 81
63 41 83
63 42 85
63 43 70
63 44 52
63 45 3
63 46 68
63 47 57
63 48 83
63 49 84
63 50 55
63 51 5
63 52 99
63 53 16
63 54 17
63 55 34
63 56 30
63 57 73
63 58 79
63 59 47
63 60 68
63 61 16
63 62 77
64 0 88
64 1 49
64 2 97
64 3 2
64 4 38
64 5 43
64 6 54
64 7 25
64 8 86
64 9 94
64 10 7
64 11 72
64 12 56
64 13 71
64 14 82
64 15 78
64 16 76
64 17 84
64 18 43
64 19 61
64 20 34
64 21 6
64 22 97
64 23 86
64 24 47
64 25 1
64 26 3
64 27 2
64 28 34
64 29 32
64 30 5
64 31 87
64 32 81
64 33 13
64 34 64
64 35 18
64 36 28
64 37 31
64 38 62
64 39 62
64 40 29
64 41 45
64 42 99
64 43 61
64 44 42
64 45 38
64 46 23
64 47 36
64 48 77
64 49 82
64 50 35
64 51 45
64 52 99
64 53 40
64 54 78
64 55 85
64 56 45
64 57 22
64 58 9
64 59 92
64 60 33
64 61 56
64 62 93
64 63 100
65 0 59
65 1 52
65 2 76
65 3 64
65 4 99
65 5 66
65 6 34
65 7 42
65 8 73
65 9 87
65 10 99
65 11 15
65 12 48
65 13 21
65 14 3
65 15 60
65 16 61
65 17 21
65 18 100
65 19 29
65 20 11
65 21 1
65 22 51
65 23 100
65 24 47
65 25 42
65 26 92
65 27 76
65 28 36
65 29 53
65 30 7
65 31 78
65 32 16
65 33 68
65 34 74
65 35 47
65 36 37
65 37 79
65 38 80
65 39 44
65 40 64
65 41 40
65 42 100
65 43 22
65 44 99
65 45 100
65 46 84
65 47 6
65 48 24
65 49 31
65 50 16
65 51 7
65 52 96
65 53 74
65 54 28
65 55 50
65 56 31
65 57 23
65 58 76
65 59 1
65 60 61
65 61 96
65 62 29
65 63 16
65 64 62
66 0 96
66 1 10
66 2 45
66 3 66
66 4 34
66 5 100
66 6 75
66 7 21
66 8 80
66 9 92
66 10 87
66 11 64
66 12 62
66 13 55
66 14 57
66 15 100
66 16 24
66 17 46
66 18 35
66 19 34
66 20 27
66 21 80
66 22 79
66 23 71
66 24 30
66 25 49
66 26 28
66 27 88
66 28 10
66 29 37
66 30 33
66 31 64
66 32 96
66 33 88
66 34 94
66 35 84
66 36 23
66 37 24
66 38 65
66 39 84
66 40 33
66 41 1
66 42 22
66 43 97
66 44 93
66 45 68
66 46 13
66 47 2
66 48 84
66 49 69
66 50 26
66 51 2
66 52 94
66 53 83
66 54 49
66 55 80
66 56 22
66 57 10
66 58 18
66 59 7
66 60 62
66 61 46
66 62 61
66 63 90
66 64 47
66 65 3
67 0 79
67 1 6
67 2 47
67 3 54
67 4 53
67 5 51
67 6 63
67 7 28
67 8 38
67 9 81
67 10 64
67 11 85
67 12 87
67 13 59
67 14 55
67 15 30
67 16 37
67 17 11
67 18 71
67 19 51
67 20 25
67 21 52
67 22 40
67 23 100
67 24 27
67 25 51
67 26 51
67 27 49
67 28 35
67 29 45
67 30 32
67 31 82
67 32 28
67 33 4
67 34 19
67 35 4
67 36 82
67 37 17
67 38 63
67 39 93
67 40 30
67 41 62
67 42 26
67 43 15
67 44 86
67 45 64
67 46 32
67 47 75
67 48 63
67 49 53
67 50 6
67 51 83
67 52 74
67 53 96
67 54 3
67 55 51
67 56 92
67 57 42
67 58 2
67 59 55
67 60 87
67 61 14
67 62 32
67 63 25
67 64 98
67 65 45
67 66 42
68 0 43
68 1 85
68 2 19
68 3 48
68 4 74
68 5 77
68 6 97
68 7 98
68 8 53
68 9 11
68 10 5
68 11 55
68 12 92
68 13 22
68 14 35
68 15 85
68 16 100
68 17 47
68 18 85
68 19 92
68 20 23
68 21 26
68 22 30
68 23 52
68 24 33
68 25 33
68 26 3
68 27 16
68 28 45
68 29 69
68 30 35
68 31 12
68 32 30
68 33 82
68 34 75
68 35 41
68 36 48
68 37 25
68 38 88
68 39 60
68 40 25
68 41 42
68 42 14
68 43 96
68 44 55
68 45 52
68 46 21
68 47 29
68 48 89
68 49 74
68 50 92
68 51 47
68 52 44
68 53 7
68 54 32
68 55 43
68 56 49
68 57 67
68 58 79
68 59 34
68 60 10
68 61 32
68 62 61
68 63 97
68 64 63
68 65 62
68 66 23
68 67 68
69 0 29
69 1 78
69 2 28
69 3 39
69 4 25
69 5 33
69 6 4
69 7 52
69 8 61
69 9 98
69 10 77
69 11 83
69 12 39
69 13 56
69 14 30
69 15 53
69 16 52
69 17 67
69 18 74
69 19 14
69 20 11
69 21 46
69 22 10
69 23 1
69 24 83
69 25 84
69 26 26
69 27 38
69 28 10
69 29 82
69 30 63
69 31 47
69 32 15
69 33 96
69 34 39
69 35 7
69 36 59
69 37 96
69 38 9
69 39 33
69 40 73
69 41 3
69 42 6
69 43 1
69 44 87
69 45 52
69 46 97
69 47 31
69 48 35
69 49 85
69 50 35
69 51 89
69 52 5
69 53 88
69 54 7
69 55 96
69 56 62
69 57 12
69 58 93
69 59 30
69 60 57
69 61 53
69 62 97
69 63 77
69 64 21
69 65 75
69 66 12
69 67 63
69 68 80
